datasets/2-dimensional/CL_04_25_07.vbp
2
1000 1000 
25
69 94 30
72 112 72
151 98 4
139 134 88
70 55 54
176 194 64
143 183 90
151 157 26
136 149 94
80 91 28
167 118 72
180 112 49
102 158 54
116 87 19
157 85 28
57 83 61
149 66 84
68 66 23
95 167 67
116 53 53
62 56 54
68 110 16
166 198 9
141 54 54
124 61 77
