datasets/2-dimensional/CL_04_25_07.txt
1000 1000 
0 30 69 94 
1 72 72 112 
2 4 151 98 
3 88 139 134 
4 54 70 55 
5 64 176 194 
6 90 143 183 
7 26 151 157 
8 94 136 149 
9 28 80 91 
10 72 167 118 
11 49 180 112 
12 54 102 158 
13 19 116 87 
14 28 157 85 
15 61 57 83 
16 84 149 66 
17 23 68 66 
18 67 95 167 
19 53 116 53 
20 54 62 56 
21 16 68 110 
22 9 166 198 
23 54 141 54 
24 77 124 61 
